p icnf
i 17 14 0
i -22 -7 0
i -20 3 0
i 12 20 0
i -15 -23 0
i 14 9 19 0
i 10 9 0
i 6 -10 0
i 16 -11 0
i -17 11 0
i 9 1 23 0
i 13 5 0
i -6 -8 -9 0
i 18 -3 0
i 8 21 0
i -4 -6 -14 0
i -5 7 0
i 15 -12 0
i 11 4 24 0
i 2 -16 0
i 6 -9 0
i -21 -2 0
i -14 -13 0
i -18 -19 -16 0
i 25 -8 22 0
q 0
s SATISFIABLE
m -1 -2 3 -4 5 6 7 -8 9 10 -11 -12 -13 14 -15 -16 -17 18 19 20 21 -22 23 24 -25 0
